100
32
11
1
15
14
2
9
7
14
13
19
15
7
13
26
13
28
13
8
16
12
20
11
12
17
3
1
3
2
1
4
2
4
1
4
1
19
1
1
2
1
17
18
1
1
17
2
3
1
1
7
8
2
2
1
1
2
1
2
1
17
2
16
3
2
2
3
3
4
1
1
18
1
1
6
5
1
25
1
3
2
19
2
1
4
3
3
3
3
4
1
4
1
18
2
1
2
1
1
3
1